! rhf aug-cc-pvdz nori noautostart extremescf nousesym

%elprop
 polar 1
 end

* xyz 0 1
O          0.000000000000     0.000000000000    -0.075791843589
H          0.000000000000    -0.866811828967     0.601435779270
H          0.000000000000     0.866811828967     0.601435779270
*
