$rem
jobtype polarizability
method hf
basis aug-cc-pvdz
symmetry false
sym_ignore true
$end

$molecule
0 1
O          0.000000000000     0.000000000000    -0.075791843589
H          0.000000000000    -0.866811828967     0.601435779270
H          0.000000000000     0.866811828967     0.601435779270
$end
